NAME          
ROWS
 N  OBJ
 L  c1
COLUMNS
    MARKER    'MARKER'                 'INTORG'
    x[1]      c1        335
    x[1]      OBJ       -362
    x[2]      c1        205
    x[2]      OBJ       -234
    x[3]      c1        913
    x[3]      OBJ       -966
    x[4]      c1        457
    x[4]      OBJ       -553
    x[5]      c1        597
    x[5]      OBJ       -638
    x[6]      c1        240
    x[6]      OBJ       -213
    x[7]      c1        807
    x[7]      OBJ       -898
    x[8]      c1        904
    x[8]      OBJ       -875
    x[9]      c1        98
    x[9]      OBJ       -123
    x[10]     c1        909
    x[10]     OBJ       -918
    x[11]     c1        254
    x[11]     OBJ       -261
    x[12]     c1        254
    x[12]     OBJ       -163
    x[13]     c1        911
    x[13]     OBJ       -994
    x[14]     c1        1044
    x[14]     OBJ       -958
    x[15]     c1        82
    x[15]     OBJ       -5
    x[16]     c1        629
    x[16]     OBJ       -576
    x[17]     c1        423
    x[17]     OBJ       -481
    x[18]     c1        248
    x[18]     OBJ       -313
    x[19]     c1        651
    x[19]     OBJ       -628
    x[20]     c1        853
    x[20]     OBJ       -792
    x[21]     c1        57
    x[21]     OBJ       -157
    x[22]     c1        687
    x[22]     OBJ       -661
    x[23]     c1        445
    x[23]     OBJ       -370
    x[24]     c1        510
    x[24]     OBJ       -465
    x[25]     c1        932
    x[25]     OBJ       -935
    x[26]     c1        15
    x[26]     OBJ       -12
    x[27]     c1        627
    x[27]     OBJ       -625
    x[28]     c1        968
    x[28]     OBJ       -979
    x[29]     c1        422
    x[29]     OBJ       -481
    x[30]     c1        652
    x[30]     OBJ       -634
    x[31]     c1        842
    x[31]     OBJ       -826
    x[32]     c1        1004
    x[32]     OBJ       -980
    x[33]     c1        195
    x[33]     OBJ       -269
    x[34]     c1        771
    x[34]     OBJ       -786
    x[35]     c1        39
    x[35]     OBJ       -79
    x[36]     c1        925
    x[36]     OBJ       -885
    x[37]     c1        575
    x[37]     OBJ       -589
    x[38]     c1        839
    x[38]     OBJ       -834
    x[39]     c1        464
    x[39]     OBJ       -470
    x[40]     c1        192
    x[40]     OBJ       -197
    x[41]     c1        944
    x[41]     OBJ       -861
    x[42]     c1        432
    x[42]     OBJ       -336
    x[43]     c1        562
    x[43]     OBJ       -645
    x[44]     c1        409
    x[44]     OBJ       -422
    x[45]     c1        861
    x[45]     OBJ       -846
    x[46]     c1        410
    x[46]     OBJ       -469
    x[47]     c1        398
    x[47]     OBJ       -391
    x[48]     c1        634
    x[48]     OBJ       -583
    x[49]     c1        517
    x[49]     OBJ       -609
    x[50]     c1        57
    x[50]     OBJ       -152
RHS
    rhs       c1        13600
RANGES
BOUNDS
 BV bounds    x[1]
 BV bounds    x[2]
 BV bounds    x[3]
 BV bounds    x[4]
 BV bounds    x[5]
 BV bounds    x[6]
 BV bounds    x[7]
 BV bounds    x[8]
 BV bounds    x[9]
 BV bounds    x[10]
 BV bounds    x[11]
 BV bounds    x[12]
 BV bounds    x[13]
 BV bounds    x[14]
 BV bounds    x[15]
 BV bounds    x[16]
 BV bounds    x[17]
 BV bounds    x[18]
 BV bounds    x[19]
 BV bounds    x[20]
 BV bounds    x[21]
 BV bounds    x[22]
 BV bounds    x[23]
 BV bounds    x[24]
 BV bounds    x[25]
 BV bounds    x[26]
 BV bounds    x[27]
 BV bounds    x[28]
 BV bounds    x[29]
 BV bounds    x[30]
 BV bounds    x[31]
 BV bounds    x[32]
 BV bounds    x[33]
 BV bounds    x[34]
 BV bounds    x[35]
 BV bounds    x[36]
 BV bounds    x[37]
 BV bounds    x[38]
 BV bounds    x[39]
 BV bounds    x[40]
 BV bounds    x[41]
 BV bounds    x[42]
 BV bounds    x[43]
 BV bounds    x[44]
 BV bounds    x[45]
 BV bounds    x[46]
 BV bounds    x[47]
 BV bounds    x[48]
 BV bounds    x[49]
 BV bounds    x[50]
ENDATA
